Set parameter TokenServer to value "hpc-licenses.hpcc.usc.edu"
Set parameter TimeLimit to value 3600
Gurobi Optimizer version 9.5.1 build v9.5.1rc2 (linux64)
Thread count: 20 physical cores, 20 logical processors, using up to 20 threads
Optimize a model with 6007 rows, 4529 columns and 24534 nonzeros
Model fingerprint: 0xfc20bcae
Variable types: 4506 continuous, 23 integer (23 binary)
Coefficient statistics:
  Matrix range     [1e+00, 1e+00]
  Objective range  [2e-04, 1e+01]
  Bounds range     [1e+00, 1e+00]
  RHS range        [1e+00, 1e+02]
Found heuristic solution: objective 282.8420643
Presolve removed 1520 rows and 1515 columns
Presolve time: 0.08s
Presolved: 4487 rows, 3014 columns, 21975 nonzeros
Variable types: 2994 continuous, 20 integer (20 binary)

Root relaxation: objective 3.050437e+02, 2369 iterations, 0.08 seconds (0.07 work units)

    Nodes    |    Current Node    |     Objective Bounds      |     Work
 Expl Unexpl |  Obj  Depth IntInf | Incumbent    BestBd   Gap | It/Node Time

     0     0  305.04369    0    2  282.84206  305.04369  7.85%     -    0s
     0     0  304.91355    0    2  282.84206  304.91355  7.80%     -    0s
     0     0  303.89570    0    2  282.84206  303.89570  7.44%     -    0s
     0     0  303.68704    0    2  282.84206  303.68704  7.37%     -    0s
     0     0  303.60383    0    2  282.84206  303.60383  7.34%     -    0s
     0     0  303.48408    0    2  282.84206  303.48408  7.30%     -    0s
     0     0  303.45517    0    2  282.84206  303.45517  7.29%     -    0s
     0     0  303.39037    0    2  282.84206  303.39037  7.26%     -    0s
     0     0  303.31085    0    2  282.84206  303.31085  7.24%     -    0s
     0     0  303.29125    0    2  282.84206  303.29125  7.23%     -    0s
     0     0  303.24923    0    2  282.84206  303.24923  7.22%     -    0s
     0     0  303.19580    0    2  282.84206  303.19580  7.20%     -    0s
     0     0  303.14321    0    2  282.84206  303.14321  7.18%     -    0s
     0     0  301.69406    0    2  282.84206  301.69406  6.67%     -    0s
H    0     0                     290.2427144  301.62076  3.92%     -    0s
     0     0  299.18367    0    2  290.24271  299.18367  3.08%     -    0s
     0     0  299.18367    0    2  290.24271  299.18367  3.08%     -    0s
     0     0  299.17239    0    3  290.24271  299.17239  3.08%     -    0s
     0     0  298.09308    0    3  290.24271  298.09308  2.70%     -    0s
H    0     0                     292.8999856  298.09308  1.77%     -    0s
     0     0  297.86644    0    3  292.89999  297.86644  1.70%     -    0s
     0     0  297.86644    0    2  292.89999  297.86644  1.70%     -    1s
     0     0  297.86644    0    2  292.89999  297.86644  1.70%     -    1s
     0     0  297.86644    0    2  292.89999  297.86644  1.70%     -    1s
     0     0  297.86644    0    3  292.89999  297.86644  1.70%     -    2s
     0     0  297.86644    0    3  292.89999  297.86644  1.70%     -    2s
     0     0  297.86644    0    6  292.89999  297.86644  1.70%     -    2s
     0     0  297.86644    0    6  292.89999  297.86644  1.70%     -    3s
     0     2  297.86644    0    6  292.89999  297.86644  1.70%     -    3s

Cutting planes:
  Gomory: 4
  MIR: 633
  RLT: 7

Explored 35 nodes (10799 simplex iterations) in 4.48 seconds (2.35 work units)
Thread count was 20 (of 20 available processors)

Solution count 3: 292.9 290.243 282.842 

Optimal solution found (tolerance 1.00e-04)
Best objective 2.928999855697e+02, best bound 2.928999855697e+02, gap 0.0000%



#########node  1
V2.8
#########node  2
0.0,1.0
#########node  3
1.0,0.0


Total Solving Time 4.8235509395599365
obj value 292.89998556971636
Policy Regret train (Sum) 15.686538167752374
Best Treatment Found train (%) 47.8
treatment classification acc train (%) 51.2
Policy Regret test (Sum) 224.60131627329972
Best Treatment Found test (%) 53.300000000000004
treatment classification acc test (%) 49.95
